20
1 0 13
2 0 2
2 1 1
3 0 10
3 1 20
3 2 18
4 0 18
4 1 9
4 2 7
4 3 16
5 0 14
5 1 17
5 2 5
5 3 12
5 4 2
6 0 11
6 1 5
6 2 10
6 3 13
6 4 15
6 5 9
7 0 7
7 1 8
7 2 1
7 3 7
7 4 13
7 5 20
7 6 14
8 0 7
8 1 8
8 2 18
8 3 6
8 4 7
8 5 5
8 6 11
8 7 14
9 0 18
9 1 6
9 2 19
9 3 2
9 4 5
9 5 19
9 6 18
9 7 20
9 8 11
10 0 1
10 1 8
10 2 11
10 3 15
10 4 20
10 5 17
10 6 3
10 7 9
10 8 10
10 9 17
11 0 5
11 1 11
11 2 10
11 3 17
11 4 11
11 5 14
11 6 3
11 7 11
11 8 4
11 9 11
11 10 16
12 0 8
12 1 14
12 2 15
12 3 13
12 4 5
12 5 3
12 6 5
12 7 8
12 8 9
12 9 18
12 10 6
12 11 15
13 0 12
13 1 18
13 2 8
13 3 9
13 4 18
13 5 18
13 6 18
13 7 3
13 8 9
13 9 6
13 10 3
13 11 2
13 12 18
14 0 7
14 1 18
14 2 17
14 3 19
14 4 6
14 5 14
14 6 16
14 7 13
14 8 3
14 9 9
14 10 14
14 11 3
14 12 17
14 13 5
15 0 11
15 1 10
15 2 8
15 3 20
15 4 14
15 5 19
15 6 19
15 7 5
15 8 17
15 9 18
15 10 11
15 11 4
15 12 12
15 13 19
15 14 1
16 0 6
16 1 10
16 2 12
16 3 1
16 4 18
16 5 14
16 6 3
16 7 20
16 8 2
16 9 13
16 10 8
16 11 3
16 12 7
16 13 18
16 14 4
16 15 15
17 0 3
17 1 6
17 2 13
17 3 20
17 4 5
17 5 4
17 6 15
17 7 7
17 8 13
17 9 12
17 10 19
17 11 7
17 12 15
17 13 8
17 14 3
17 15 19
17 16 12
18 0 15
18 1 13
18 2 7
18 3 6
18 4 17
18 5 5
18 6 20
18 7 18
18 8 18
18 9 12
18 10 15
18 11 19
18 12 1
18 13 20
18 14 4
18 15 2
18 16 6
18 17 15
19 0 5
19 1 17
19 2 2
19 3 7
19 4 19
19 5 4
19 6 11
19 7 17
19 8 16
19 9 12
19 10 6
19 11 15
19 12 11
19 13 5
19 14 8
19 15 3
19 16 5
19 17 2
19 18 15
